(set-logic UFDT)
(declare-datatypes ((nat 0)) (((zero) (s (s0 nat)))))
(declare-fun add (nat nat) nat)
(non-erasing add 2)
(injective add (true true))
(declare-fun leq (nat nat) Bool)
(assert (forall ((y nat)) (= (add zero y) y)))
(assert (forall ((x nat) (y nat)) (= (add (s x) y) (s (add x y)))))
(assert (forall ((y nat)) (leq zero y)))
(assert (forall ((x nat)) (not (leq (s x) zero))))
(assert (forall ((x nat) (y nat)) (= (leq (s x) (s y)) (leq x y))))
(assert (not (forall ((v0 nat) (v1 nat) (v2 nat) (v3 nat) (v4 nat) (v5 nat) (v6 nat) (v7 nat)) (= (add (add v2 (s v5)) (s (add (s v5) (s (s (add (s (s (add (s (add (s (add v3 (s v7))) v6)) (s (s (s (s (add (s v6) (add (s v4) (s v1)))))))))) v0)))))) (s (add (add (add v5 (s (s v5))) (s (add (s v4) (add (s (s (s (s (add (add v0 v6) (s v1)))))) (s (s (s (add (s (s (add (s v2) v7))) v3)))))))) (s v6)))))))
(check-sat)
